Maximize
  Profit: 3.7 P1 + 5.2 P2 + 6.1 P3 + 9.3 J1 + 9.6 J2 + 4.8 M1 + 7.2 M2 + 9.1 M3
    + 2.6 B1 + 5.4 B2 + 5.8 B3 + 6.9 B4
Subject To
  Size: 12 P1 + 16 P2 + 18 P3 + 21 J1 + 24 J2 + 18 M1 + 21 M2 + 28 M3
    + 12 B1 + 15 B2 + 18 B3 + 24 B4 <= 80
  Peanut: P1 + P2 + P3 <= 1
  Jam: J1 + J2 <= 1
  Milk: M1 + M2 + M3 <= 1
  Bread: B1 + B2 + B3 + B4 <= 1
Binaries
  P1 P2 P3 J1 J2 M1 M2 M3 B1 B2 B3 B4
End
